Problem:    independent_set
Rows:       5
Columns:    5 (5 integer, 5 binary)
Non-zeros:  10
Status:     INTEGER OPTIMAL
Objective:  2 (MAXimum)

   No.   Row name        Activity     Lower bound   Upper bound
------ ------------    ------------- ------------- -------------
     1 q1                          1                           1 
     2 q2                          1                           1 
     3 q3                          1                           1 
     4 q4                          1                           1 
     5 q5                          0                           1 

   No. Column name       Activity     Lower bound   Upper bound
------ ------------    ------------- ------------- -------------
     1 x1           *              1             0             1 
     2 x2           *              0             0             1 
     3 x3           *              1             0             1 
     4 x4           *              0             0             1 
     5 x5           *              0             0             1 

Integer feasibility conditions:

KKT.PE: max.abs.err = 0.00e+00 on row 0
        max.rel.err = 0.00e+00 on row 0
        High quality

KKT.PB: max.abs.err = 0.00e+00 on row 0
        max.rel.err = 0.00e+00 on row 0
        High quality

End of output
